WARNING: for repeatability, setting FPU to use double precision
============================[ Problem Statistics ]=============================
|                                                                             |
|  Number of variables:            50                                         |
|  Number of clauses:             218                                         |
|  Parse time:                   0.00 s                                       |
|                                                                             |
============================[ Search Statistics ]==============================
| Conflicts |          ORIGINAL         |          LEARNT          | Progress |
|           |    Vars  Clauses Literals |    Limit  Clauses Lit/Cl |          |
===============================================================================
===============================================================================
restarts              : 1
conflicts             : 15             (11078 /sec)
decisions             : 27             (0.00 % random) (19941 /sec)
propagations          : 190            (140325 /sec)
conflict literals     : 73             (0.00 % deleted)
Memory used           : 20.00 MB
CPU time              : 0.001354 s

SATISFIABLE
